Ordonnancement/plne/source/petit_instance/3job/3job_19.dat
data;
param nombreJob := 3;
param nombreRessource := 3;
param duree := 1 10 2 3 3 5;
param capaciteRessource := 1 4 2 11 3 15;
param besoinRessource : 1 2 3 :=
                    1   1 1 5
                    2   3 7 2
                    3   3 6 6;
end;

