Ordonnancement/plne/source/glpk_resultat/3job/3job_19.sol
Problem:    glpsolRcpsp
Rows:       160
Columns:    55 (54 integer, 54 binary)
Non-zeros:  829
Status:     INTEGER OPTIMAL
Objective:  obj = 10 (MINimum)

   No.   Row name        Activity     Lower bound   Upper bound
------ ------------    ------------- ------------- -------------
     1 periode[1]                 10            10             = 
     2 periode[2]                  3             3             = 
     3 periode[3]                  5             5             = 
     4 complet[1,1]                8                          10 
     5 complet[1,2]                7                          10 
     6 complet[1,3]                6                          10 
     7 complet[1,4]                5                          10 
     8 complet[1,5]                4                          10 
     9 complet[1,6]                3                          10 
    10 complet[1,7]                2                          10 
    11 complet[1,8]                1                          10 
    12 complet[1,9]                0                          10 
    13 complet[1,10]
                                  10                          10 
    14 complet[1,11]
                                   0                          10 
    15 complet[1,12]
                                   0                          10 
    16 complet[1,13]
                                   0                          10 
    17 complet[1,14]
                                   0                          10 
    18 complet[1,15]
                                   0                          10 
    19 complet[1,16]
                                   0                          10 
    20 complet[2,1]                3                           3 
    21 complet[2,2]               -1                           3 
    22 complet[2,3]                1                           3 
    23 complet[2,4]                0                           3 
    24 complet[2,5]                3                           3 
    25 complet[2,6]                0                           3 
    26 complet[2,7]                0                           3 
    27 complet[2,8]                0                           3 
    28 complet[2,9]                0                           3 
    29 complet[2,10]
                                   0                           3 
    30 complet[2,11]
                                   0                           3 
    31 complet[2,12]
                                   0                           3 
    32 complet[2,13]
                                   0                           3 
    33 complet[2,14]
                                   0                           3 
    34 complet[2,15]
                                   0                           3 
    35 complet[2,16]
                                   0                           3 
    36 complet[3,1]                5                           5 
    37 complet[3,2]                5                           5 
    38 complet[3,3]                5                           5 
    39 complet[3,4]                5                           5 
    40 complet[3,5]               -1                           5 
    41 complet[3,6]                3                           5 
    42 complet[3,7]                2                           5 
    43 complet[3,8]                1                           5 
    44 complet[3,9]                0                           5 
    45 complet[3,10]
                                   5                           5 
    46 complet[3,11]
                                   0                           5 
    47 complet[3,12]
                                   0                           5 
    48 complet[3,13]
                                   0                           5 
    49 complet[3,14]
                                   0                           5 
    50 complet[3,15]
                                   0                           5 
    51 complet[3,16]
                                   0                           5 
    52 cmax[1,1]                   9            -0               
    53 cmax[1,2]                   8            -0               
    54 cmax[1,3]                   7            -0               
    55 cmax[1,4]                   6            -0               
    56 cmax[1,5]                   5            -0               
    57 cmax[1,6]                   4            -0               
    58 cmax[1,7]                   3            -0               
    59 cmax[1,8]                   2            -0               
    60 cmax[1,9]                   1            -0               
    61 cmax[1,10]                  0            -0               
    62 cmax[1,11]                 10            -0               
    63 cmax[1,12]                 10            -0               
    64 cmax[1,13]                 10            -0               
    65 cmax[1,14]                 10            -0               
    66 cmax[1,15]                 10            -0               
    67 cmax[1,16]                 10            -0               
    68 cmax[1,17]                 10            -0               
    69 cmax[1,18]                 10            -0               
    70 cmax[2,1]                  10            -0               
    71 cmax[2,2]                  10            -0               
    72 cmax[2,3]                   7            -0               
    73 cmax[2,4]                   6            -0               
    74 cmax[2,5]                   5            -0               
    75 cmax[2,6]                  10            -0               
    76 cmax[2,7]                  10            -0               
    77 cmax[2,8]                  10            -0               
    78 cmax[2,9]                  10            -0               
    79 cmax[2,10]                 10            -0               
    80 cmax[2,11]                 10            -0               
    81 cmax[2,12]                 10            -0               
    82 cmax[2,13]                 10            -0               
    83 cmax[2,14]                 10            -0               
    84 cmax[2,15]                 10            -0               
    85 cmax[2,16]                 10            -0               
    86 cmax[2,17]                 10            -0               
    87 cmax[2,18]                 10            -0               
    88 cmax[3,1]                  10            -0               
    89 cmax[3,2]                  10            -0               
    90 cmax[3,3]                  10            -0               
    91 cmax[3,4]                  10            -0               
    92 cmax[3,5]                  10            -0               
    93 cmax[3,6]                   4            -0               
    94 cmax[3,7]                   3            -0               
    95 cmax[3,8]                   2            -0               
    96 cmax[3,9]                   1            -0               
    97 cmax[3,10]                  0            -0               
    98 cmax[3,11]                 10            -0               
    99 cmax[3,12]                 10            -0               
   100 cmax[3,13]                 10            -0               
   101 cmax[3,14]                 10            -0               
   102 cmax[3,15]                 10            -0               
   103 cmax[3,16]                 10            -0               
   104 cmax[3,17]                 10            -0               
   105 cmax[3,18]                 10            -0               
   106 ressource[1,1]
                                   1                           4 
   107 ressource[1,2]
                                   1                           4 
   108 ressource[1,3]
                                   4                           4 
   109 ressource[1,4]
                                   4                           4 
   110 ressource[1,5]
                                   4                           4 
   111 ressource[1,6]
                                   4                           4 
   112 ressource[1,7]
                                   4                           4 
   113 ressource[1,8]
                                   4                           4 
   114 ressource[1,9]
                                   4                           4 
   115 ressource[1,10]
                                   4                           4 
   116 ressource[1,11]
                                   0                           4 
   117 ressource[1,12]
                                   0                           4 
   118 ressource[1,13]
                                   0                           4 
   119 ressource[1,14]
                                   0                           4 
   120 ressource[1,15]
                                   0                           4 
   121 ressource[1,16]
                                   0                           4 
   122 ressource[1,17]
                                   0                           4 
   123 ressource[1,18]
                                   0                           4 
   124 ressource[2,1]
                                   1                          11 
   125 ressource[2,2]
                                   1                          11 
   126 ressource[2,3]
                                   8                          11 
   127 ressource[2,4]
                                   8                          11 
   128 ressource[2,5]
                                   8                          11 
   129 ressource[2,6]
                                   7                          11 
   130 ressource[2,7]
                                   7                          11 
   131 ressource[2,8]
                                   7                          11 
   132 ressource[2,9]
                                   7                          11 
   133 ressource[2,10]
                                   7                          11 
   134 ressource[2,11]
                                   0                          11 
   135 ressource[2,12]
                                   0                          11 
   136 ressource[2,13]
                                   0                          11 
   137 ressource[2,14]
                                   0                          11 
   138 ressource[2,15]
                                   0                          11 
   139 ressource[2,16]
                                   0                          11 
   140 ressource[2,17]
                                   0                          11 
   141 ressource[2,18]
                                   0                          11 
   142 ressource[3,1]
                                   5                          15 
   143 ressource[3,2]
                                   5                          15 
   144 ressource[3,3]
                                   7                          15 
   145 ressource[3,4]
                                   7                          15 
   146 ressource[3,5]
                                   7                          15 
   147 ressource[3,6]
                                  11                          15 
   148 ressource[3,7]
                                  11                          15 
   149 ressource[3,8]
                                  11                          15 
   150 ressource[3,9]
                                  11                          15 
   151 ressource[3,10]
                                  11                          15 
   152 ressource[3,11]
                                   0                          15 
   153 ressource[3,12]
                                   0                          15 
   154 ressource[3,13]
                                   0                          15 
   155 ressource[3,14]
                                   0                          15 
   156 ressource[3,15]
                                   0                          15 
   157 ressource[3,16]
                                   0                          15 
   158 ressource[3,17]
                                   0                          15 
   159 ressource[3,18]
                                   0                          15 
   160 obj                        10                             

   No. Column name       Activity     Lower bound   Upper bound
------ ------------    ------------- ------------- -------------
     1 x[1,1]       *              1             0             1 
     2 x[1,2]       *              1             0             1 
     3 x[1,3]       *              1             0             1 
     4 x[1,4]       *              1             0             1 
     5 x[1,5]       *              1             0             1 
     6 x[1,6]       *              1             0             1 
     7 x[1,7]       *              1             0             1 
     8 x[1,8]       *              1             0             1 
     9 x[1,9]       *              1             0             1 
    10 x[1,10]      *              1             0             1 
    11 x[1,11]      *              0             0             1 
    12 x[1,12]      *              0             0             1 
    13 x[1,13]      *              0             0             1 
    14 x[1,14]      *              0             0             1 
    15 x[1,15]      *              0             0             1 
    16 x[1,16]      *              0             0             1 
    17 x[1,17]      *              0             0             1 
    18 x[1,18]      *              0             0             1 
    19 x[2,1]       *              0             0             1 
    20 x[2,2]       *              0             0             1 
    21 x[2,3]       *              1             0             1 
    22 x[2,4]       *              1             0             1 
    23 x[2,5]       *              1             0             1 
    24 x[2,6]       *              0             0             1 
    25 x[2,7]       *              0             0             1 
    26 x[2,8]       *              0             0             1 
    27 x[2,9]       *              0             0             1 
    28 x[2,10]      *              0             0             1 
    29 x[2,11]      *              0             0             1 
    30 x[2,12]      *              0             0             1 
    31 x[2,13]      *              0             0             1 
    32 x[2,14]      *              0             0             1 
    33 x[2,15]      *              0             0             1 
    34 x[2,16]      *              0             0             1 
    35 x[2,17]      *              0             0             1 
    36 x[2,18]      *              0             0             1 
    37 x[3,1]       *              0             0             1 
    38 x[3,2]       *              0             0             1 
    39 x[3,3]       *              0             0             1 
    40 x[3,4]       *              0             0             1 
    41 x[3,5]       *              0             0             1 
    42 x[3,6]       *              1             0             1 
    43 x[3,7]       *              1             0             1 
    44 x[3,8]       *              1             0             1 
    45 x[3,9]       *              1             0             1 
    46 x[3,10]      *              1             0             1 
    47 x[3,11]      *              0             0             1 
    48 x[3,12]      *              0             0             1 
    49 x[3,13]      *              0             0             1 
    50 x[3,14]      *              0             0             1 
    51 x[3,15]      *              0             0             1 
    52 x[3,16]      *              0             0             1 
    53 x[3,17]      *              0             0             1 
    54 x[3,18]      *              0             0             1 
    55 z                          10                             

Integer feasibility conditions:

KKT.PE: max.abs.err = 0.00e+00 on row 0
        max.rel.err = 0.00e+00 on row 0
        High quality

KKT.PB: max.abs.err = 0.00e+00 on row 0
        max.rel.err = 0.00e+00 on row 0
        High quality

End of output
